70
1 0 74
2 0 33
2 1 33
3 0 51
3 1 39
3 2 47
4 0 4
4 1 70
4 2 99
4 3 38
5 0 57
5 1 37
5 2 34
5 3 42
5 4 40
6 0 72
6 1 53
6 2 61
6 3 81
6 4 62
6 5 10
7 0 76
7 1 22
7 2 1
7 3 15
7 4 33
7 5 88
7 6 89
8 0 67
8 1 87
8 2 95
8 3 50
8 4 64
8 5 75
8 6 12
8 7 84
9 0 71
9 1 52
9 2 11
9 3 61
9 4 51
9 5 80
9 6 83
9 7 17
9 8 91
10 0 4
10 1 10
10 2 28
10 3 69
10 4 12
10 5 8
10 6 45
10 7 57
10 8 86
10 9 80
11 0 28
11 1 52
11 2 83
11 3 63
11 4 29
11 5 73
11 6 4
11 7 39
11 8 87
11 9 73
11 10 45
12 0 42
12 1 40
12 2 53
12 3 26
12 4 3
12 5 77
12 6 75
12 7 58
12 8 93
12 9 86
12 10 13
12 11 77
13 0 68
13 1 54
13 2 92
13 3 72
13 4 18
13 5 37
13 6 88
13 7 75
13 8 82
13 9 13
13 10 15
13 11 87
13 12 74
14 0 70
14 1 2
14 2 70
14 3 37
14 4 99
14 5 40
14 6 26
14 7 19
14 8 4
14 9 60
14 10 26
14 11 36
14 12 27
14 13 60
15 0 88
15 1 67
15 2 69
15 3 3
15 4 95
15 5 94
15 6 56
15 7 46
15 8 11
15 9 91
15 10 55
15 11 76
15 12 39
15 13 10
15 14 78
16 0 65
16 1 15
16 2 31
16 3 96
16 4 63
16 5 52
16 6 69
16 7 63
16 8 94
16 9 61
16 10 51
16 11 34
16 12 31
16 13 22
16 14 17
16 15 6
17 0 60
17 1 81
17 2 97
17 3 23
17 4 47
17 5 91
17 6 69
17 7 40
17 8 88
17 9 30
17 10 13
17 11 9
17 12 1
17 13 59
17 14 92
17 15 55
17 16 73
18 0 6
18 1 53
18 2 48
18 3 97
18 4 86
18 5 10
18 6 75
18 7 45
18 8 96
18 9 48
18 10 2
18 11 62
18 12 41
18 13 90
18 14 40
18 15 84
18 16 87
18 17 73
19 0 79
19 1 13
19 2 42
19 3 59
19 4 53
19 5 6
19 6 2
19 7 66
19 8 40
19 9 43
19 10 42
19 11 88
19 12 25
19 13 6
19 14 3
19 15 52
19 16 55
19 17 68
19 18 21
20 0 15
20 1 92
20 2 78
20 3 16
20 4 16
20 5 31
20 6 92
20 7 5
20 8 30
20 9 28
20 10 83
20 11 30
20 12 79
20 13 79
20 14 36
20 15 2
20 16 5
20 17 22
20 18 1
20 19 12
21 0 23
21 1 64
21 2 76
21 3 62
21 4 84
21 5 61
21 6 23
21 7 96
21 8 27
21 9 85
21 10 54
21 11 55
21 12 12
21 13 73
21 14 36
21 15 88
21 16 42
21 17 38
21 18 99
21 19 75
21 20 32
22 0 78
22 1 46
22 2 50
22 3 77
22 4 22
22 5 8
22 6 50
22 7 20
22 8 97
22 9 84
22 10 96
22 11 37
22 12 11
22 13 52
22 14 100
22 15 82
22 16 67
22 17 64
22 18 63
22 19 55
22 20 75
22 21 38
23 0 82
23 1 93
23 2 17
23 3 20
23 4 4
23 5 89
23 6 76
23 7 85
23 8 86
23 9 2
23 10 50
23 11 85
23 12 47
23 13 5
23 14 98
23 15 74
23 16 28
23 17 72
23 18 89
23 19 64
23 20 82
23 21 27
23 22 64
24 0 99
24 1 84
24 2 88
24 3 21
24 4 39
24 5 9
24 6 79
24 7 81
24 8 96
24 9 26
24 10 2
24 11 6
24 12 70
24 13 15
24 14 84
24 15 70
24 16 73
24 17 95
24 18 46
24 19 98
24 20 32
24 21 19
24 22 60
24 23 35
25 0 17
25 1 79
25 2 80
25 3 12
25 4 40
25 5 34
25 6 76
25 7 4
25 8 6
25 9 32
25 10 8
25 11 11
25 12 21
25 13 9
25 14 1
25 15 11
25 16 92
25 17 86
25 18 30
25 19 47
25 20 65
25 21 80
25 22 11
25 23 64
25 24 92
26 0 15
26 1 65
26 2 8
26 3 23
26 4 100
26 5 96
26 6 36
26 7 52
26 8 92
26 9 2
26 10 23
26 11 90
26 12 88
26 13 17
26 14 45
26 15 16
26 16 89
26 17 33
26 18 82
26 19 35
26 20 46
26 21 71
26 22 73
26 23 65
26 24 75
26 25 100
27 0 9
27 1 6
27 2 99
27 3 100
27 4 57
27 5 72
27 6 61
27 7 39
27 8 39
27 9 93
27 10 7
27 11 8
27 12 19
27 13 17
27 14 41
27 15 28
27 16 63
27 17 63
27 18 95
27 19 25
27 20 81
27 21 16
27 22 72
27 23 32
27 24 71
27 25 48
27 26 52
28 0 80
28 1 9
28 2 22
28 3 61
28 4 64
28 5 66
28 6 12
28 7 59
28 8 19
28 9 44
28 10 31
28 11 86
28 12 24
28 13 69
28 14 67
28 15 76
28 16 27
28 17 62
28 18 59
28 19 23
28 20 66
28 21 99
28 22 69
28 23 61
28 24 6
28 25 21
28 26 28
28 27 8
29 0 46
29 1 51
29 2 62
29 3 52
29 4 47
29 5 39
29 6 26
29 7 9
29 8 89
29 9 35
29 10 7
29 11 71
29 12 61
29 13 59
29 14 67
29 15 25
29 16 40
29 17 25
29 18 46
29 19 3
29 20 11
29 21 38
29 22 30
29 23 2
29 24 39
29 25 61
29 26 69
29 27 91
29 28 91
30 0 31
30 1 1
30 2 74
30 3 71
30 4 67
30 5 4
30 6 1
30 7 12
30 8 1
30 9 90
30 10 17
30 11 47
30 12 21
30 13 11
30 14 15
30 15 40
30 16 12
30 17 51
30 18 34
30 19 61
30 20 33
30 21 3
30 22 87
30 23 31
30 24 60
30 25 75
30 26 49
30 27 69
30 28 87
30 29 66
31 0 21
31 1 23
31 2 79
31 3 98
31 4 40
31 5 54
31 6 86
31 7 14
31 8 24
31 9 29
31 10 92
31 11 64
31 12 62
31 13 10
31 14 55
31 15 34
31 16 75
31 17 78
31 18 35
31 19 12
31 20 29
31 21 5
31 22 56
31 23 70
31 24 67
31 25 66
31 26 18
31 27 25
31 28 82
31 29 74
31 30 61
32 0 98
32 1 69
32 2 50
32 3 68
32 4 90
32 5 5
32 6 86
32 7 26
32 8 40
32 9 61
32 10 49
32 11 8
32 12 28
32 13 38
32 14 38
32 15 33
32 16 64
32 17 83
32 18 96
32 19 17
32 20 34
32 21 32
32 22 29
32 23 33
32 24 31
32 25 66
32 26 93
32 27 24
32 28 81
32 29 6
32 30 54
32 31 53
33 0 25
33 1 69
33 2 15
33 3 83
33 4 45
33 5 46
33 6 84
33 7 6
33 8 23
33 9 3
33 10 20
33 11 84
33 12 84
33 13 97
33 14 69
33 15 60
33 16 56
33 17 61
33 18 6
33 19 47
33 20 43
33 21 5
33 22 13
33 23 20
33 24 11
33 25 29
33 26 75
33 27 49
33 28 15
33 29 55
33 30 82
33 31 62
33 32 22
34 0 13
34 1 46
34 2 29
34 3 18
34 4 50
34 5 91
34 6 81
34 7 93
34 8 35
34 9 71
34 10 37
34 11 41
34 12 90
34 13 11
34 14 89
34 15 25
34 16 58
34 17 100
34 18 56
34 19 98
34 20 97
34 21 56
34 22 31
34 23 67
34 24 68
34 25 55
34 26 64
34 27 50
34 28 31
34 29 98
34 30 55
34 31 67
34 32 93
34 33 48
35 0 72
35 1 45
35 2 58
35 3 61
35 4 85
35 5 59
35 6 78
35 7 4
35 8 4
35 9 12
35 10 6
35 11 32
35 12 61
35 13 38
35 14 92
35 15 42
35 16 56
35 17 81
35 18 78
35 19 65
35 20 82
35 21 78
35 22 95
35 23 44
35 24 82
35 25 60
35 26 47
35 27 97
35 28 8
35 29 35
35 30 39
35 31 90
35 32 79
35 33 30
35 34 7
36 0 49
36 1 72
36 2 94
36 3 25
36 4 89
36 5 85
36 6 2
36 7 16
36 8 50
36 9 47
36 10 1
36 11 92
36 12 58
36 13 79
36 14 91
36 15 86
36 16 45
36 17 24
36 18 38
36 19 72
36 20 13
36 21 100
36 22 53
36 23 65
36 24 19
36 25 46
36 26 88
36 27 64
36 28 2
36 29 60
36 30 36
36 31 70
36 32 6
36 33 55
36 34 33
36 35 86
37 0 45
37 1 81
37 2 96
37 3 10
37 4 26
37 5 88
37 6 51
37 7 38
37 8 26
37 9 22
37 10 30
37 11 63
37 12 89
37 13 91
37 14 45
37 15 42
37 16 84
37 17 35
37 18 66
37 19 39
37 20 40
37 21 86
37 22 62
37 23 100
37 24 61
37 25 8
37 26 78
37 27 94
37 28 68
37 29 47
37 30 60
37 31 28
37 32 44
37 33 37
37 34 56
37 35 40
37 36 51
38 0 34
38 1 49
38 2 1
38 3 69
38 4 84
38 5 97
38 6 99
38 7 71
38 8 37
38 9 89
38 10 77
38 11 20
38 12 68
38 13 55
38 14 54
38 15 66
38 16 74
38 17 63
38 18 41
38 19 80
38 20 38
38 21 11
38 22 44
38 23 44
38 24 3
38 25 97
38 26 12
38 27 87
38 28 81
38 29 4
38 30 58
38 31 39
38 32 89
38 33 67
38 34 82
38 35 42
38 36 8
38 37 76
39 0 67
39 1 35
39 2 77
39 3 49
39 4 17
39 5 14
39 6 85
39 7 84
39 8 66
39 9 19
39 10 28
39 11 53
39 12 83
39 13 4
39 14 31
39 15 23
39 16 42
39 17 10
39 18 60
39 19 98
39 20 39
39 21 7
39 22 65
39 23 20
39 24 60
39 25 20
39 26 47
39 27 81
39 28 57
39 29 24
39 30 22
39 31 31
39 32 73
39 33 85
39 34 29
39 35 78
39 36 8
39 37 82
39 38 15
40 0 18
40 1 45
40 2 28
40 3 79
40 4 44
40 5 64
40 6 98
40 7 72
40 8 24
40 9 9
40 10 96
40 11 75
40 12 39
40 13 86
40 14 53
40 15 7
40 16 25
40 17 26
40 18 23
40 19 33
40 20 60
40 21 15
40 22 13
40 23 77
40 24 91
40 25 87
40 26 78
40 27 53
40 28 96
40 29 43
40 30 54
40 31 74
40 32 11
40 33 14
40 34 26
40 35 10
40 36 86
40 37 9
40 38 35
40 39 90
41 0 35
41 1 1
41 2 81
41 3 70
41 4 7
41 5 51
41 6 81
41 7 29
41 8 79
41 9 57
41 10 76
41 11 49
41 12 58
41 13 96
41 14 9
41 15 93
41 16 44
41 17 90
41 18 10
41 19 91
41 20 79
41 21 8
41 22 62
41 23 2
41 24 100
41 25 91
41 26 30
41 27 98
41 28 59
41 29 62
41 30 92
41 31 2
41 32 85
41 33 58
41 34 82
41 35 71
41 36 91
41 37 88
41 38 47
41 39 1
41 40 68
42 0 21
42 1 89
42 2 8
42 3 5
42 4 37
42 5 9
42 6 92
42 7 27
42 8 12
42 9 14
42 10 11
42 11 51
42 12 14
42 13 32
42 14 6
42 15 91
42 16 27
42 17 42
42 18 53
42 19 64
42 20 35
42 21 35
42 22 50
42 23 92
42 24 35
42 25 41
42 26 46
42 27 73
42 28 54
42 29 97
42 30 78
42 31 93
42 32 89
42 33 49
42 34 77
42 35 96
42 36 10
42 37 99
42 38 47
42 39 18
42 40 72
42 41 44
43 0 45
43 1 77
43 2 45
43 3 76
43 4 1
43 5 53
43 6 48
43 7 33
43 8 60
43 9 14
43 10 45
43 11 15
43 12 44
43 13 63
43 14 51
43 15 21
43 16 50
43 17 20
43 18 44
43 19 54
43 20 43
43 21 64
43 22 79
43 23 9
43 24 19
43 25 81
43 26 61
43 27 40
43 28 16
43 29 22
43 30 22
43 31 68
43 32 28
43 33 48
43 34 95
43 35 81
43 36 49
43 37 11
43 38 98
43 39 35
43 40 21
43 41 21
43 42 53
44 0 54
44 1 3
44 2 78
44 3 25
44 4 94
44 5 61
44 6 73
44 7 35
44 8 16
44 9 48
44 10 88
44 11 93
44 12 80
44 13 33
44 14 60
44 15 52
44 16 64
44 17 86
44 18 69
44 19 82
44 20 58
44 21 44
44 22 76
44 23 10
44 24 99
44 25 100
44 26 28
44 27 75
44 28 33
44 29 91
44 30 92
44 31 9
44 32 39
44 33 91
44 34 86
44 35 15
44 36 32
44 37 26
44 38 36
44 39 27
44 40 39
44 41 52
44 42 63
44 43 61
45 0 19
45 1 93
45 2 68
45 3 6
45 4 60
45 5 13
45 6 96
45 7 87
45 8 84
45 9 61
45 10 83
45 11 26
45 12 38
45 13 33
45 14 6
45 15 76
45 16 56
45 17 23
45 18 14
45 19 90
45 20 9
45 21 66
45 22 89
45 23 66
45 24 97
45 25 96
45 26 72
45 27 79
45 28 32
45 29 64
45 30 65
45 31 83
45 32 23
45 33 91
45 34 69
45 35 37
45 36 67
45 37 62
45 38 46
45 39 23
45 40 99
45 41 75
45 42 91
45 43 14
45 44 56
46 0 97
46 1 70
46 2 35
46 3 65
46 4 7
46 5 51
46 6 38
46 7 51
46 8 11
46 9 39
46 10 43
46 11 32
46 12 71
46 13 87
46 14 58
46 15 46
46 16 82
46 17 39
46 18 62
46 19 15
46 20 75
46 21 47
46 22 3
46 23 65
46 24 48
46 25 52
46 26 70
46 27 33
46 28 49
46 29 17
46 30 16
46 31 47
46 32 52
46 33 58
46 34 65
46 35 45
46 36 11
46 37 30
46 38 6
46 39 85
46 40 82
46 41 27
46 42 73
46 43 53
46 44 39
46 45 26
47 0 69
47 1 65
47 2 37
47 3 92
47 4 53
47 5 40
47 6 92
47 7 95
47 8 37
47 9 63
47 10 77
47 11 33
47 12 40
47 13 85
47 14 54
47 15 55
47 16 91
47 17 32
47 18 6
47 19 18
47 20 95
47 21 98
47 22 22
47 23 30
47 24 95
47 25 58
47 26 46
47 27 68
47 28 91
47 29 37
47 30 15
47 31 61
47 32 5
47 33 99
47 34 28
47 35 83
47 36 100
47 37 53
47 38 29
47 39 4
47 40 94
47 41 93
47 42 85
47 43 78
47 44 23
47 45 10
47 46 11
48 0 75
48 1 50
48 2 54
48 3 62
48 4 91
48 5 19
48 6 29
48 7 84
48 8 80
48 9 98
48 10 34
48 11 20
48 12 2
48 13 75
48 14 15
48 15 84
48 16 81
48 17 83
48 18 69
48 19 69
48 20 11
48 21 76
48 22 9
48 23 49
48 24 59
48 25 86
48 26 98
48 27 83
48 28 44
48 29 20
48 30 10
48 31 30
48 32 12
48 33 100
48 34 64
48 35 52
48 36 9
48 37 26
48 38 39
48 39 43
48 40 42
48 41 34
48 42 84
48 43 15
48 44 74
48 45 86
48 46 62
48 47 41
49 0 84
49 1 85
49 2 4
49 3 22
49 4 9
49 5 26
49 6 53
49 7 39
49 8 24
49 9 28
49 10 25
49 11 91
49 12 43
49 13 91
49 14 31
49 15 51
49 16 50
49 17 83
49 18 14
49 19 83
49 20 79
49 21 48
49 22 18
49 23 83
49 24 5
49 25 97
49 26 76
49 27 73
49 28 33
49 29 16
49 30 86
49 31 31
49 32 70
49 33 98
49 34 27
49 35 46
49 36 33
49 37 4
49 38 15
49 39 43
49 40 36
49 41 75
49 42 14
49 43 84
49 44 30
49 45 91
49 46 42
49 47 85
49 48 22
50 0 18
50 1 46
50 2 73
50 3 76
50 4 99
50 5 32
50 6 71
50 7 77
50 8 89
50 9 70
50 10 11
50 11 18
50 12 18
50 13 21
50 14 91
50 15 25
50 16 59
50 17 46
50 18 33
50 19 53
50 20 17
50 21 95
50 22 7
50 23 95
50 24 66
50 25 87
50 26 30
50 27 100
50 28 10
50 29 38
50 30 54
50 31 95
50 32 42
50 33 85
50 34 96
50 35 37
50 36 16
50 37 13
50 38 94
50 39 73
50 40 68
50 41 1
50 42 60
50 43 49
50 44 57
50 45 16
50 46 89
50 47 18
50 48 90
50 49 50
51 0 47
51 1 41
51 2 65
51 3 57
51 4 22
51 5 53
51 6 59
51 7 43
51 8 33
51 9 73
51 10 19
51 11 22
51 12 31
51 13 61
51 14 48
51 15 26
51 16 21
51 17 47
51 18 95
51 19 55
51 20 1
51 21 4
51 22 82
51 23 76
51 24 4
51 25 19
51 26 44
51 27 27
51 28 65
51 29 89
51 30 39
51 31 91
51 32 69
51 33 68
51 34 79
51 35 20
51 36 57
51 37 8
51 38 78
51 39 45
51 40 71
51 41 87
51 42 6
51 43 98
51 44 84
51 45 29
51 46 29
51 47 30
51 48 49
51 49 32
51 50 39
52 0 99
52 1 46
52 2 76
52 3 14
52 4 62
52 5 26
52 6 84
52 7 77
52 8 6
52 9 72
52 10 39
52 11 28
52 12 82
52 13 35
52 14 88
52 15 68
52 16 46
52 17 6
52 18 90
52 19 49
52 20 11
52 21 36
52 22 89
52 23 16
52 24 64
52 25 12
52 26 17
52 27 14
52 28 8
52 29 59
52 30 46
52 31 92
52 32 25
52 33 24
52 34 68
52 35 19
52 36 78
52 37 40
52 38 54
52 39 86
52 40 92
52 41 17
52 42 23
52 43 83
52 44 84
52 45 76
52 46 32
52 47 49
52 48 32
52 49 28
52 50 55
52 51 44
53 0 7
53 1 78
53 2 24
53 3 96
53 4 100
53 5 89
53 6 38
53 7 15
53 8 18
53 9 48
53 10 70
53 11 87
53 12 46
53 13 14
53 14 35
53 15 68
53 16 84
53 17 41
53 18 83
53 19 68
53 20 3
53 21 1
53 22 37
53 23 82
53 24 96
53 25 62
53 26 97
53 27 99
53 28 2
53 29 84
53 30 76
53 31 18
53 32 36
53 33 45
53 34 27
53 35 31
53 36 59
53 37 3
53 38 94
53 39 63
53 40 50
53 41 66
53 42 93
53 43 77
53 44 94
53 45 22
53 46 91
53 47 89
53 48 72
53 49 38
53 50 60
53 51 33
53 52 26
54 0 59
54 1 12
54 2 94
54 3 50
54 4 38
54 5 40
54 6 89
54 7 95
54 8 82
54 9 31
54 10 54
54 11 28
54 12 21
54 13 14
54 14 89
54 15 57
54 16 99
54 17 68
54 18 47
54 19 22
54 20 65
54 21 8
54 22 85
54 23 13
54 24 16
54 25 100
54 26 3
54 27 57
54 28 100
54 29 98
54 30 41
54 31 7
54 32 4
54 33 3
54 34 19
54 35 96
54 36 68
54 37 64
54 38 26
54 39 58
54 40 14
54 41 95
54 42 99
54 43 30
54 44 67
54 45 70
54 46 57
54 47 68
54 48 14
54 49 12
54 50 61
54 51 67
54 52 32
54 53 3
55 0 38
55 1 50
55 2 74
55 3 71
55 4 68
55 5 69
55 6 95
55 7 29
55 8 42
55 9 40
55 10 61
55 11 80
55 12 27
55 13 96
55 14 76
55 15 11
55 16 92
55 17 35
55 18 99
55 19 31
55 20 8
55 21 100
55 22 66
55 23 43
55 24 85
55 25 8
55 26 25
55 27 35
55 28 41
55 29 23
55 30 35
55 31 47
55 32 10
55 33 44
55 34 16
55 35 44
55 36 22
55 37 40
55 38 26
55 39 90
55 40 20
55 41 62
55 42 16
55 43 20
55 44 2
55 45 14
55 46 82
55 47 53
55 48 90
55 49 59
55 50 22
55 51 82
55 52 83
55 53 95
55 54 58
56 0 32
56 1 25
56 2 30
56 3 83
56 4 1
56 5 2
56 6 27
56 7 61
56 8 87
56 9 65
56 10 19
56 11 52
56 12 85
56 13 18
56 14 99
56 15 81
56 16 15
56 17 33
56 18 41
56 19 48
56 20 94
56 21 80
56 22 7
56 23 50
56 24 83
56 25 79
56 26 40
56 27 77
56 28 56
56 29 15
56 30 62
56 31 83
56 32 81
56 33 74
56 34 13
56 35 59
56 36 15
56 37 87
56 38 3
56 39 55
56 40 34
56 41 94
56 42 70
56 43 19
56 44 71
56 45 67
56 46 59
56 47 65
56 48 27
56 49 49
56 50 66
56 51 78
56 52 61
56 53 91
56 54 15
56 55 21
57 0 2
57 1 16
57 2 60
57 3 4
57 4 23
57 5 23
57 6 29
57 7 22
57 8 65
57 9 11
57 10 55
57 11 82
57 12 11
57 13 99
57 14 55
57 15 67
57 16 53
57 17 55
57 18 62
57 19 23
57 20 86
57 21 82
57 22 10
57 23 44
57 24 27
57 25 93
57 26 38
57 27 2
57 28 56
57 29 100
57 30 50
57 31 58
57 32 15
57 33 99
57 34 58
57 35 34
57 36 4
57 37 96
57 38 95
57 39 39
57 40 82
57 41 40
57 42 59
57 43 77
57 44 50
57 45 47
57 46 54
57 47 86
57 48 60
57 49 20
57 50 9
57 51 78
57 52 9
57 53 12
57 54 9
57 55 88
57 56 86
58 0 84
58 1 62
58 2 38
58 3 86
58 4 46
58 5 92
58 6 87
58 7 17
58 8 5
58 9 27
58 10 26
58 11 59
58 12 31
58 13 20
58 14 18
58 15 49
58 16 30
58 17 28
58 18 13
58 19 3
58 20 86
58 21 31
58 22 82
58 23 4
58 24 8
58 25 77
58 26 48
58 27 4
58 28 91
58 29 68
58 30 7
58 31 35
58 32 76
58 33 36
58 34 62
58 35 12
58 36 83
58 37 72
58 38 36
58 39 87
58 40 31
58 41 100
58 42 9
58 43 79
58 44 79
58 45 19
58 46 6
58 47 83
58 48 55
58 49 53
58 50 35
58 51 47
58 52 56
58 53 68
58 54 50
58 55 64
58 56 29
58 57 64
59 0 88
59 1 14
59 2 68
59 3 50
59 4 94
59 5 54
59 6 99
59 7 44
59 8 51
59 9 47
59 10 22
59 11 69
59 12 74
59 13 76
59 14 36
59 15 40
59 16 23
59 17 79
59 18 78
59 19 50
59 20 52
59 21 100
59 22 36
59 23 7
59 24 11
59 25 54
59 26 23
59 27 89
59 28 47
59 29 38
59 30 25
59 31 99
59 32 82
59 33 48
59 34 59
59 35 55
59 36 66
59 37 65
59 38 2
59 39 42
59 40 24
59 41 43
59 42 70
59 43 98
59 44 57
59 45 100
59 46 81
59 47 36
59 48 58
59 49 86
59 50 3
59 51 3
59 52 51
59 53 2
59 54 83
59 55 31
59 56 70
59 57 78
59 58 21
60 0 46
60 1 34
60 2 31
60 3 11
60 4 25
60 5 88
60 6 71
60 7 79
60 8 13
60 9 5
60 10 23
60 11 86
60 12 54
60 13 80
60 14 84
60 15 73
60 16 1
60 17 62
60 18 29
60 19 69
60 20 88
60 21 98
60 22 28
60 23 97
60 24 93
60 25 81
60 26 68
60 27 29
60 28 26
60 29 43
60 30 54
60 31 90
60 32 18
60 33 17
60 34 50
60 35 13
60 36 98
60 37 74
60 38 99
60 39 87
60 40 72
60 41 95
60 42 4
60 43 56
60 44 59
60 45 40
60 46 74
60 47 51
60 48 36
60 49 33
60 50 76
60 51 85
60 52 1
60 53 57
60 54 31
60 55 18
60 56 52
60 57 46
60 58 44
60 59 79
61 0 47
61 1 2
61 2 79
61 3 20
61 4 94
61 5 88
61 6 91
61 7 12
61 8 69
61 9 62
61 10 88
61 11 26
61 12 93
61 13 70
61 14 97
61 15 50
61 16 83
61 17 91
61 18 28
61 19 47
61 20 72
61 21 19
61 22 93
61 23 40
61 24 73
61 25 24
61 26 1
61 27 78
61 28 17
61 29 15
61 30 35
61 31 46
61 32 91
61 33 6
61 34 10
61 35 90
61 36 65
61 37 62
61 38 31
61 39 83
61 40 82
61 41 68
61 42 22
61 43 60
61 44 37
61 45 44
61 46 94
61 47 90
61 48 90
61 49 20
61 50 66
61 51 62
61 52 73
61 53 14
61 54 57
61 55 7
61 56 89
61 57 1
61 58 22
61 59 83
61 60 19
62 0 62
62 1 94
62 2 91
62 3 85
62 4 34
62 5 49
62 6 6
62 7 20
62 8 23
62 9 18
62 10 33
62 11 59
62 12 39
62 13 4
62 14 21
62 15 57
62 16 63
62 17 84
62 18 14
62 19 72
62 20 61
62 21 98
62 22 95
62 23 96
62 24 1
62 25 61
62 26 65
62 27 7
62 28 45
62 29 44
62 30 73
62 31 80
62 32 10
62 33 16
62 34 67
62 35 82
62 36 31
62 37 41
62 38 48
62 39 29
62 40 62
62 41 65
62 42 47
62 43 94
62 44 1
62 45 53
62 46 46
62 47 87
62 48 37
62 49 39
62 50 22
62 51 39
62 52 30
62 53 21
62 54 87
62 55 76
62 56 87
62 57 6
62 58 39
62 59 55
62 60 5
62 61 71
63 0 66
63 1 97
63 2 70
63 3 23
63 4 56
63 5 48
63 6 48
63 7 55
63 8 3
63 9 40
63 10 15
63 11 36
63 12 24
63 13 44
63 14 91
63 15 84
63 16 16
63 17 36
63 18 84
63 19 5
63 20 15
63 21 10
63 22 70
63 23 4
63 24 60
63 25 18
63 26 52
63 27 93
63 28 39
63 29 14
63 30 70
63 31 57
63 32 94
63 33 36
63 34 78
63 35 60
63 36 12
63 37 55
63 38 80
63 39 82
63 40 12
63 41 66
63 42 11
63 43 37
63 44 23
63 45 15
63 46 5
63 47 8
63 48 100
63 49 74
63 50 72
63 51 97
63 52 36
63 53 5
63 54 91
63 55 82
63 56 57
63 57 91
63 58 79
63 59 8
63 60 2
63 61 17
63 62 3
64 0 91
64 1 46
64 2 22
64 3 41
64 4 83
64 5 2
64 6 67
64 7 9
64 8 25
64 9 7
64 10 75
64 11 3
64 12 10
64 13 94
64 14 60
64 15 34
64 16 18
64 17 93
64 18 30
64 19 58
64 20 86
64 21 10
64 22 35
64 23 9
64 24 44
64 25 85
64 26 13
64 27 4
64 28 20
64 29 34
64 30 31
64 31 82
64 32 92
64 33 11
64 34 30
64 35 76
64 36 50
64 37 44
64 38 36
64 39 45
64 40 84
64 41 52
64 42 85
64 43 17
64 44 22
64 45 31
64 46 62
64 47 7
64 48 80
64 49 61
64 50 71
64 51 27
64 52 89
64 53 83
64 54 90
64 55 85
64 56 28
64 57 52
64 58 47
64 59 52
64 60 67
64 61 47
64 62 54
64 63 46
65 0 97
65 1 12
65 2 73
65 3 49
65 4 11
65 5 49
65 6 92
65 7 64
65 8 53
65 9 85
65 10 51
65 11 87
65 12 55
65 13 3
65 14 29
65 15 30
65 16 25
65 17 74
65 18 6
65 19 35
65 20 62
65 21 68
65 22 33
65 23 71
65 24 6
65 25 10
65 26 87
65 27 78
65 28 46
65 29 3
65 30 3
65 31 30
65 32 52
65 33 55
65 34 99
65 35 15
65 36 1
65 37 64
65 38 30
65 39 52
65 40 8
65 41 60
65 42 54
65 43 100
65 44 96
65 45 97
65 46 86
65 47 28
65 48 38
65 49 53
65 50 67
65 51 51
65 52 91
65 53 79
65 54 91
65 55 46
65 56 81
65 57 96
65 58 51
65 59 8
65 60 9
65 61 52
65 62 6
65 63 8
65 64 5
66 0 62
66 1 72
66 2 65
66 3 26
66 4 9
66 5 2
66 6 42
66 7 99
66 8 81
66 9 97
66 10 32
66 11 29
66 12 63
66 13 60
66 14 83
66 15 51
66 16 10
66 17 2
66 18 92
66 19 78
66 20 76
66 21 41
66 22 60
66 23 69
66 24 72
66 25 73
66 26 82
66 27 45
66 28 76
66 29 90
66 30 34
66 31 92
66 32 18
66 33 73
66 34 56
66 35 61
66 36 18
66 37 11
66 38 58
66 39 35
66 40 51
66 41 92
66 42 93
66 43 26
66 44 48
66 45 77
66 46 81
66 47 29
66 48 86
66 49 67
66 50 70
66 51 37
66 52 5
66 53 7
66 54 69
66 55 100
66 56 65
66 57 91
66 58 88
66 59 80
66 60 24
66 61 74
66 62 80
66 63 34
66 64 5
66 65 83
67 0 63
67 1 32
67 2 83
67 3 97
67 4 53
67 5 84
67 6 6
67 7 51
67 8 65
67 9 37
67 10 42
67 11 48
67 12 44
67 13 68
67 14 92
67 15 18
67 16 30
67 17 83
67 18 38
67 19 44
67 20 83
67 21 100
67 22 7
67 23 39
67 24 11
67 25 60
67 26 61
67 27 60
67 28 82
67 29 21
67 30 49
67 31 76
67 32 10
67 33 13
67 34 90
67 35 31
67 36 51
67 37 57
67 38 62
67 39 77
67 40 43
67 41 79
67 42 16
67 43 62
67 44 76
67 45 77
67 46 52
67 47 97
67 48 88
67 49 22
67 50 11
67 51 34
67 52 2
67 53 86
67 54 78
67 55 36
67 56 68
67 57 47
67 58 99
67 59 22
67 60 73
67 61 6
67 62 58
67 63 12
67 64 17
67 65 14
67 66 64
68 0 2
68 1 88
68 2 98
68 3 48
68 4 53
68 5 76
68 6 29
68 7 62
68 8 75
68 9 4
68 10 76
68 11 42
68 12 27
68 13 75
68 14 40
68 15 72
68 16 74
68 17 56
68 18 56
68 19 45
68 20 78
68 21 50
68 22 7
68 23 46
68 24 97
68 25 31
68 26 97
68 27 60
68 28 24
68 29 38
68 30 72
68 31 7
68 32 13
68 33 52
68 34 81
68 35 52
68 36 38
68 37 8
68 38 14
68 39 36
68 40 3
68 41 16
68 42 83
68 43 31
68 44 99
68 45 80
68 46 98
68 47 12
68 48 68
68 49 51
68 50 78
68 51 4
68 52 32
68 53 64
68 54 99
68 55 41
68 56 75
68 57 16
68 58 44
68 59 49
68 60 10
68 61 1
68 62 43
68 63 38
68 64 65
68 65 22
68 66 93
68 67 63
69 0 50
69 1 19
69 2 2
69 3 97
69 4 9
69 5 3
69 6 3
69 7 21
69 8 66
69 9 82
69 10 17
69 11 13
69 12 16
69 13 3
69 14 84
69 15 17
69 16 18
69 17 72
69 18 71
69 19 97
69 20 91
69 21 10
69 22 32
69 23 22
69 24 25
69 25 52
69 26 88
69 27 35
69 28 55
69 29 12
69 30 29
69 31 4
69 32 63
69 33 62
69 34 90
69 35 47
69 36 97
69 37 99
69 38 23
69 39 87
69 40 31
69 41 99
69 42 74
69 43 87
69 44 5
69 45 81
69 46 55
69 47 58
69 48 9
69 49 31
69 50 44
69 51 42
69 52 17
69 53 59
69 54 73
69 55 18
69 56 69
69 57 91
69 58 70
69 59 78
69 60 59
69 61 9
69 62 84
69 63 82
69 64 94
69 65 9
69 66 99
69 67 75
69 68 3
